c 45_3_checker_5cl.cnf
c
c field = 45
c formula set type = 3_checker_5cl
c
p cnf 5 8
82 
84 
86 
-81 
-78 
83 
85 
87 
-80 
-79 
28 
58 
118 
-149 
-178 
29 
59 
119 
-148 
-179 
58 
118 
148 
-29 
-178 
59 
119 
149 
-28 
-179 
116 
144 
172 
-201 
-228 
117 
145 
173 
-200 
-229 
